(declare-fun temp1649_1 () (_ BitVec 64))
(declare-fun var68976 () (_ BitVec 64))
(declare-fun temp1649_2 () (_ BitVec 64))
(declare-fun temp1649_3 () (_ BitVec 64))
(declare-fun temp1649_4 () (_ BitVec 64))
(declare-fun ARGNAME_w_ih_NAMEEND_DIMSIZE
             ()
             (Array (_ BitVec 64) (_ BitVec 64)))
(declare-fun temp1649_5 () (_ BitVec 64))
(declare-fun temp1649_6 () (_ BitVec 64))
(declare-fun temp1649_7 () (_ BitVec 64))
(declare-fun temp1649_8 () (_ BitVec 64))
(declare-fun temp1649_9 () (_ BitVec 64))
(declare-fun temp1649_10 () (_ BitVec 64))
(declare-fun temp1649_11 () (_ BitVec 64))
(declare-fun temp1649_12 () (_ BitVec 64))
(declare-fun temp1649_13 () (_ BitVec 64))
(declare-fun temp1649_14 () (_ BitVec 64))
(declare-fun temp1649_15 () (_ BitVec 64))
(declare-fun temp1649_16 () (_ BitVec 64))
(declare-fun temp1649_17 () (_ BitVec 64))
(declare-fun temp1649_18 () (_ BitVec 64))
(declare-fun temp1649_19 () (_ BitVec 64))
(declare-fun temp1649_20 () (_ BitVec 64))
(declare-fun temp1649_21 () (_ BitVec 64))
(declare-fun temp1649_22 () (_ BitVec 64))
(declare-fun var77378 () (_ BitVec 64))
(declare-fun temp1649_23 () (_ BitVec 64))
(declare-fun temp1649_24 () (_ BitVec 64))
(declare-fun temp1649_25 () (_ BitVec 64))
(declare-fun ARGNAME_input_NAMEEND_DIMSIZE
             ()
             (Array (_ BitVec 64) (_ BitVec 64)))
(declare-fun temp1649_26 () (_ BitVec 64))
(declare-fun temp1649_27 () (_ BitVec 64))
(declare-fun temp1649_28 () (_ BitVec 64))
(declare-fun temp1649_29 () (_ BitVec 64))
(declare-fun temp1649_30 () (_ BitVec 64))
(declare-fun temp1649_31 () (_ BitVec 64))
(declare-fun temp1649_32 () (_ BitVec 64))
(declare-fun temp1649_33 () (_ BitVec 64))
(declare-fun temp1649_34 () (_ BitVec 64))
(declare-fun temp1649_35 () (_ BitVec 64))
(declare-fun temp1649_36 () (_ BitVec 64))
(declare-fun temp1649_37 () (_ BitVec 64))
(declare-fun temp1649_38 () (_ BitVec 64))
(declare-fun temp1649_39 () (_ BitVec 64))
(declare-fun temp1649_40 () (_ BitVec 64))
(declare-fun temp1649_41 () (_ BitVec 64))
(declare-fun temp1649_42 () (_ BitVec 64))
(declare-fun temp1649_43 () (_ BitVec 64))
(declare-fun temp1649_44 () (_ BitVec 64))
(declare-fun temp1649_45 () (_ BitVec 64))
(declare-fun var404256 () (_ BitVec 64))
(declare-fun k!0 () Bool)
(declare-fun ARGNAME_w_ih_NAMEEND_DIM () (_ BitVec 64))
(declare-fun k!1 () (_ BitVec 64))
(declare-fun k!2 () (_ BitVec 64))
(declare-fun k!3 () Bool)
(declare-fun k!4 () Bool)
(declare-fun ARGNAME_input_NAMEEND_DIM () (_ BitVec 64))
(declare-fun temp1649_46 () (_ BitVec 64))
(declare-fun temp1649_47 () (_ BitVec 64))
(declare-fun temp1649_48 () (_ BitVec 64))
(declare-fun ARGNAME_w_hh_NAMEEND_DIMSIZE
             ()
             (Array (_ BitVec 64) (_ BitVec 64)))
(declare-fun temp1649_49 () (_ BitVec 64))
(declare-fun temp1649_50 () (_ BitVec 64))
(declare-fun temp1649_51 () (_ BitVec 64))
(declare-fun temp1649_52 () (_ BitVec 64))
(declare-fun temp1649_53 () (_ BitVec 64))
(declare-fun temp1649_54 () (_ BitVec 64))
(declare-fun temp1649_55 () (_ BitVec 64))
(declare-fun temp1649_56 () (_ BitVec 64))
(declare-fun temp1649_57 () (_ BitVec 64))
(declare-fun temp1649_58 () (_ BitVec 64))
(declare-fun temp1649_59 () (_ BitVec 64))
(declare-fun temp1649_60 () (_ BitVec 64))
(declare-fun temp1649_61 () (_ BitVec 64))
(declare-fun temp1649_62 () (_ BitVec 64))
(declare-fun temp1649_63 () (_ BitVec 64))
(declare-fun temp1649_64 () (_ BitVec 64))
(declare-fun temp1649_65 () (_ BitVec 64))
(declare-fun ARGNAME_w_hh_NAMEEND_DIM () (_ BitVec 64))
(declare-fun temp1649_66 () (_ BitVec 64))
(declare-fun temp1649_67 () (_ BitVec 64))
(declare-fun var77383 () (_ BitVec 64))
(declare-fun temp1649_68 () (_ BitVec 64))
(declare-fun temp1649_69 () (_ BitVec 64))
(declare-fun temp1649_70 () (_ BitVec 64))
(declare-fun temp1649_71 () (_ BitVec 64))
(declare-fun temp1649_72 () (_ BitVec 64))
(declare-fun ARGNAME_hx_NAMEEND_DIMSIZE () (Array (_ BitVec 64) (_ BitVec 64)))
(declare-fun temp1649_73 () (_ BitVec 64))
(declare-fun temp1649_74 () (_ BitVec 64))
(declare-fun temp1649_75 () (_ BitVec 64))
(declare-fun temp1649_76 () (_ BitVec 64))
(declare-fun temp1649_77 () (_ BitVec 64))
(declare-fun temp1649_78 () (_ BitVec 64))
(declare-fun temp1649_79 () (_ BitVec 64))
(declare-fun temp1649_80 () (_ BitVec 64))
(declare-fun temp1649_81 () (_ BitVec 64))
(declare-fun temp1649_82 () (_ BitVec 64))
(declare-fun temp1649_83 () (_ BitVec 64))
(declare-fun temp1649_84 () (_ BitVec 64))
(declare-fun temp1649_85 () (_ BitVec 64))
(declare-fun temp1649_86 () (_ BitVec 64))
(declare-fun temp1649_87 () (_ BitVec 64))
(declare-fun temp1649_88 () (_ BitVec 64))
(declare-fun temp1649_89 () (_ BitVec 64))
(declare-fun temp1649_90 () (_ BitVec 64))
(declare-fun temp1649_91 () (_ BitVec 64))
(declare-fun ARGNAME_hx_NAMEEND_DIM () (_ BitVec 64))
(declare-fun var666568 () (_ BitVec 64))
(declare-fun temp1649_92 () (_ BitVec 64))
(declare-fun temp1649_93 () (_ BitVec 64))
(declare-fun temp1649_94 () (_ BitVec 64))
(declare-fun temp1649_95 () (_ BitVec 64))
(declare-fun temp1649_96 () (_ BitVec 64))
(declare-fun var666637 () (_ BitVec 64))
(declare-fun temp1649_97 () (_ BitVec 64))
(declare-fun temp1649_99 () (_ BitVec 64))
(declare-fun temp1649_98 () (_ BitVec 64))
(declare-fun temp1649_100 () (_ BitVec 64))
(declare-fun var1514936 () (_ BitVec 64))
(declare-fun temp1649_101 () (_ BitVec 64))
(declare-fun temp1649_102 () (_ BitVec 64))
(declare-fun var2101313 () (_ BitVec 64))
(declare-fun temp1649_103 () (_ BitVec 64))
(declare-fun var2101314 () (_ BitVec 64))
(declare-fun temp1649_104 () (_ BitVec 64))
(declare-fun var2232385 () (_ BitVec 64))
(declare-fun temp1649_105 () (_ BitVec 64))
(declare-fun var2232386 () (_ BitVec 64))
(declare-fun temp1649_106 () (_ BitVec 64))
(declare-fun var2363467 () (_ BitVec 64))
(declare-fun temp1649_107 () (_ BitVec 64))
(declare-fun var2429012 () (_ BitVec 64))
(declare-fun temp1649_108 () (_ BitVec 64))
(declare-fun var2494281 () (_ BitVec 64))
(declare-fun temp1649_109 () (_ BitVec 64))
(declare-fun var2756683 () (_ BitVec 64))
(declare-fun temp1649_110 () (_ BitVec 64))
(declare-fun var2822228 () (_ BitVec 64))
(declare-fun temp1649_111 () (_ BitVec 64))
(declare-fun var2887497 () (_ BitVec 64))
(declare-fun temp1649_112 () (_ BitVec 64))
(declare-fun var3149908 () (_ BitVec 64))
(declare-fun temp1649_113 () (_ BitVec 64))
(declare-fun var3215435 () (_ BitVec 64))
(declare-fun temp1649_114 () (_ BitVec 64))
(declare-fun var3346249 () (_ BitVec 64))
(declare-fun temp1649_115 () (_ BitVec 64))
(declare-fun var3739465 () (_ BitVec 64))
(declare-fun temp1649_116 () (_ BitVec 64))
(declare-fun var4001609 () (_ BitVec 64))
(assert (= temp1649_1 #x0000000000000001))
(assert (= var68976 temp1649_1))
(assert (= temp1649_2 #x0000000000000000))
(assert (= temp1649_3 temp1649_2))
(assert (= temp1649_4 (select ARGNAME_w_ih_NAMEEND_DIMSIZE temp1649_3)))
(assert (= temp1649_5 #x0000000000000001))
(assert (= temp1649_6 temp1649_5))
(assert (= temp1649_7 (select ARGNAME_w_ih_NAMEEND_DIMSIZE temp1649_6)))
(assert (= temp1649_8 #x0000000000000002))
(assert (= temp1649_9 temp1649_8))
(assert (= temp1649_10 (select ARGNAME_w_ih_NAMEEND_DIMSIZE temp1649_9)))
(assert (= temp1649_11 #x0000000000000003))
(assert (= temp1649_12 temp1649_11))
(assert (= temp1649_13 (select ARGNAME_w_ih_NAMEEND_DIMSIZE temp1649_12)))
(assert (= temp1649_14 #x0000000000000004))
(assert (= temp1649_15 temp1649_14))
(assert (= temp1649_16 (select ARGNAME_w_ih_NAMEEND_DIMSIZE temp1649_15)))
(assert (= temp1649_17 #x0000000000000005))
(assert (= temp1649_18 temp1649_17))
(assert (= temp1649_19 (select ARGNAME_w_ih_NAMEEND_DIMSIZE temp1649_18)))
(assert (= temp1649_20 #x0000000000000000))
(assert (= temp1649_21
   (ite (bvslt var68976 temp1649_20)
        (bvadd ARGNAME_w_ih_NAMEEND_DIM var68976)
        var68976)))
(assert (= temp1649_22 (select ARGNAME_w_ih_NAMEEND_DIMSIZE temp1649_21)))
(assert (= var77378 temp1649_22))
(assert (bvslt (ite (bvslt var68976 temp1649_20)
            (bvadd ARGNAME_w_ih_NAMEEND_DIM var68976)
            var68976)
       ARGNAME_w_ih_NAMEEND_DIM))
(assert (= temp1649_23 #x0000000000000000))
(assert (= temp1649_24 temp1649_23))
(assert (= temp1649_25 (select ARGNAME_input_NAMEEND_DIMSIZE temp1649_24)))
(assert (= temp1649_26 #x0000000000000001))
(assert (= temp1649_27 temp1649_26))
(assert (= temp1649_28 (select ARGNAME_input_NAMEEND_DIMSIZE temp1649_27)))
(assert (= temp1649_29 #x0000000000000002))
(assert (= temp1649_30 temp1649_29))
(assert (= temp1649_31 (select ARGNAME_input_NAMEEND_DIMSIZE temp1649_30)))
(assert (= temp1649_32 #x0000000000000003))
(assert (= temp1649_33 temp1649_32))
(assert (= temp1649_34 (select ARGNAME_input_NAMEEND_DIMSIZE temp1649_33)))
(assert (= temp1649_35 #x0000000000000004))
(assert (= temp1649_36 temp1649_35))
(assert (= temp1649_37 (select ARGNAME_input_NAMEEND_DIMSIZE temp1649_36)))
(assert (= temp1649_38 #x0000000000000005))
(assert (= temp1649_39 temp1649_38))
(assert (= temp1649_40 (select ARGNAME_input_NAMEEND_DIMSIZE temp1649_39)))
(assert (= temp1649_41 #x0000000000000001))
(assert (= temp1649_42 temp1649_41))
(assert (= temp1649_43 (select ARGNAME_input_NAMEEND_DIMSIZE temp1649_42)))
(assert (bvsgt ARGNAME_input_NAMEEND_DIM temp1649_41))
(assert (bvsge temp1649_41 (bvneg ARGNAME_input_NAMEEND_DIM)))
(assert (= temp1649_44 var77378))
(assert (= var404256
   (ite (= temp1649_43 temp1649_44) #x0000000000000001 #x0000000000000000)))
(assert (= temp1649_45 #x0000000000000001))
(assert (= var404256 temp1649_45))
(assert (= temp1649_46 #x0000000000000001))
(assert (= var68976 temp1649_46))
(assert (= temp1649_47 #x0000000000000000))
(assert (= temp1649_48 temp1649_47))
(assert (= temp1649_49 (select ARGNAME_w_hh_NAMEEND_DIMSIZE temp1649_48)))
(assert (= temp1649_50 #x0000000000000001))
(assert (= temp1649_51 temp1649_50))
(assert (= temp1649_52 (select ARGNAME_w_hh_NAMEEND_DIMSIZE temp1649_51)))
(assert (= temp1649_53 #x0000000000000002))
(assert (= temp1649_54 temp1649_53))
(assert (= temp1649_55 (select ARGNAME_w_hh_NAMEEND_DIMSIZE temp1649_54)))
(assert (= temp1649_56 #x0000000000000003))
(assert (= temp1649_57 temp1649_56))
(assert (= temp1649_58 (select ARGNAME_w_hh_NAMEEND_DIMSIZE temp1649_57)))
(assert (= temp1649_59 #x0000000000000004))
(assert (= temp1649_60 temp1649_59))
(assert (= temp1649_61 (select ARGNAME_w_hh_NAMEEND_DIMSIZE temp1649_60)))
(assert (= temp1649_62 #x0000000000000005))
(assert (= temp1649_63 temp1649_62))
(assert (= temp1649_64 (select ARGNAME_w_hh_NAMEEND_DIMSIZE temp1649_63)))
(assert (= temp1649_65 #x0000000000000000))
(assert (= temp1649_66
   (ite (bvslt var68976 temp1649_65)
        (bvadd ARGNAME_w_hh_NAMEEND_DIM var68976)
        var68976)))
(assert (= temp1649_67 (select ARGNAME_w_hh_NAMEEND_DIMSIZE temp1649_66)))
(assert (= var77383 temp1649_67))
(assert (bvslt (ite (bvslt var68976 temp1649_65)
            (bvadd ARGNAME_w_hh_NAMEEND_DIM var68976)
            var68976)
       ARGNAME_w_hh_NAMEEND_DIM))
(assert (= temp1649_68 #x0000000000000000))
(assert (= temp1649_69 temp1649_68))
(assert (= temp1649_70 (select ARGNAME_input_NAMEEND_DIMSIZE temp1649_69)))
(assert (bvsgt ARGNAME_input_NAMEEND_DIM temp1649_68))
(assert (bvsge temp1649_68 (bvneg ARGNAME_input_NAMEEND_DIM)))
(assert (= temp1649_71 #x0000000000000000))
(assert (= temp1649_72 temp1649_71))
(assert (= temp1649_73 (select ARGNAME_hx_NAMEEND_DIMSIZE temp1649_72)))
(assert (= temp1649_74 #x0000000000000001))
(assert (= temp1649_75 temp1649_74))
(assert (= temp1649_76 (select ARGNAME_hx_NAMEEND_DIMSIZE temp1649_75)))
(assert (= temp1649_77 #x0000000000000002))
(assert (= temp1649_78 temp1649_77))
(assert (= temp1649_79 (select ARGNAME_hx_NAMEEND_DIMSIZE temp1649_78)))
(assert (= temp1649_80 #x0000000000000003))
(assert (= temp1649_81 temp1649_80))
(assert (= temp1649_82 (select ARGNAME_hx_NAMEEND_DIMSIZE temp1649_81)))
(assert (= temp1649_83 #x0000000000000004))
(assert (= temp1649_84 temp1649_83))
(assert (= temp1649_85 (select ARGNAME_hx_NAMEEND_DIMSIZE temp1649_84)))
(assert (= temp1649_86 #x0000000000000005))
(assert (= temp1649_87 temp1649_86))
(assert (= temp1649_88 (select ARGNAME_hx_NAMEEND_DIMSIZE temp1649_87)))
(assert (= temp1649_89 #x0000000000000000))
(assert (= temp1649_90 temp1649_89))
(assert (= temp1649_91 (select ARGNAME_hx_NAMEEND_DIMSIZE temp1649_90)))
(assert (bvsgt ARGNAME_hx_NAMEEND_DIM temp1649_89))
(assert (bvsge temp1649_89 (bvneg ARGNAME_hx_NAMEEND_DIM)))
(assert (= var666568
   (ite (= temp1649_70 temp1649_91) #x0000000000000001 #x0000000000000000)))
(assert (= temp1649_92 #x0000000000000001))
(assert (= var666568 temp1649_92))
(assert (= temp1649_93 #x0000000000000001))
(assert (= temp1649_94 temp1649_93))
(assert (= temp1649_95 (select ARGNAME_hx_NAMEEND_DIMSIZE temp1649_94)))
(assert (bvsgt ARGNAME_hx_NAMEEND_DIM temp1649_93))
(assert (bvsge temp1649_93 (bvneg ARGNAME_hx_NAMEEND_DIM)))
(assert (= temp1649_96 var77383))
(assert (= var666637
   (ite (= temp1649_95 temp1649_96) #x0000000000000001 #x0000000000000000)))
(assert (= temp1649_97 #x0000000000000001))
(assert (= var666637 temp1649_97))
(assert (= temp1649_99 #x0000000000000000))
(assert (= temp1649_98 temp1649_99))
(assert (= temp1649_100 #x0000000000000000))
(assert (= var1514936 temp1649_100))
(assert (= temp1649_101 #x0000000000000000))
(assert (= var1514936 temp1649_101))
(assert (= temp1649_102 #x0000000000000003))
(assert (= var2101313 temp1649_102))
(assert (= temp1649_103 #x0000000000000001))
(assert (= var2101314 temp1649_103))
(assert (= temp1649_104 #x0000000000000003))
(assert (= var2232385 temp1649_104))
(assert (= temp1649_105 #x0000000000000001))
(assert (= var2232386 temp1649_105))
(assert (= temp1649_106 #x0000000000000000))
(assert (= var2363467 temp1649_106))
(assert (= temp1649_107 #x0000000000000000))
(assert (= var2429012 temp1649_107))
(assert (= temp1649_108 #x0000000000000001))
(assert (= var2494281 temp1649_108))
(assert (= temp1649_109 #x0000000000000001))
(assert (= var2756683 temp1649_109))
(assert (= temp1649_110 #x0000000000000001))
(assert (= var2822228 temp1649_110))
(assert (= temp1649_111 #x0000000000000001))
(assert (= var2887497 temp1649_111))
(assert (= temp1649_112 #x0000000000000002))
(assert (= var3149908 temp1649_112))
(assert (= temp1649_113 #x0000000000000002))
(assert (= var3215435 temp1649_113))
(assert (= temp1649_114 #x0000000000000001))
(assert (= var3346249 temp1649_114))
(assert (= temp1649_115 #x0000000000000001))
(assert (= var3739465 temp1649_115))
(assert (= temp1649_116 #x0000000000000001))
(assert (= var4001609 temp1649_116))
(model-add temp1649_1 () (_ BitVec 64) #x0000000000000001)
(model-add var68976 () (_ BitVec 64) #x0000000000000001)
(model-add temp1649_2 () (_ BitVec 64) #x0000000000000000)
(model-add temp1649_3 () (_ BitVec 64) #x0000000000000000)
(model-add temp1649_4
           ()
           (_ BitVec 64)
           (select ARGNAME_w_ih_NAMEEND_DIMSIZE #x0000000000000000))
(model-add temp1649_5 () (_ BitVec 64) #x0000000000000001)
(model-add temp1649_6 () (_ BitVec 64) #x0000000000000001)
(model-add temp1649_7
           ()
           (_ BitVec 64)
           (select ARGNAME_w_ih_NAMEEND_DIMSIZE #x0000000000000001))
(model-add temp1649_8 () (_ BitVec 64) #x0000000000000002)
(model-add temp1649_9 () (_ BitVec 64) #x0000000000000002)
(model-add temp1649_10
           ()
           (_ BitVec 64)
           (select ARGNAME_w_ih_NAMEEND_DIMSIZE #x0000000000000002))
(model-add temp1649_11 () (_ BitVec 64) #x0000000000000003)
(model-add temp1649_12 () (_ BitVec 64) #x0000000000000003)
(model-add temp1649_13
           ()
           (_ BitVec 64)
           (select ARGNAME_w_ih_NAMEEND_DIMSIZE #x0000000000000003))
(model-add temp1649_14 () (_ BitVec 64) #x0000000000000004)
(model-add temp1649_15 () (_ BitVec 64) #x0000000000000004)
(model-add temp1649_16
           ()
           (_ BitVec 64)
           (select ARGNAME_w_ih_NAMEEND_DIMSIZE #x0000000000000004))
(model-add temp1649_17 () (_ BitVec 64) #x0000000000000005)
(model-add temp1649_18 () (_ BitVec 64) #x0000000000000005)
(model-add temp1649_19
           ()
           (_ BitVec 64)
           (select ARGNAME_w_ih_NAMEEND_DIMSIZE #x0000000000000005))
(model-add temp1649_20 () (_ BitVec 64) #x0000000000000000)
(model-add temp1649_21 () (_ BitVec 64) #x0000000000000001)
(model-add temp1649_22
           ()
           (_ BitVec 64)
           (select ARGNAME_w_ih_NAMEEND_DIMSIZE #x0000000000000001))
(model-add var77378
           ()
           (_ BitVec 64)
           (select ARGNAME_w_ih_NAMEEND_DIMSIZE #x0000000000000001))
(model-add temp1649_23 () (_ BitVec 64) #x0000000000000000)
(model-add temp1649_24 () (_ BitVec 64) #x0000000000000000)
(model-add temp1649_25
           ()
           (_ BitVec 64)
           (select ARGNAME_input_NAMEEND_DIMSIZE #x0000000000000000))
(model-add temp1649_26 () (_ BitVec 64) #x0000000000000001)
(model-add temp1649_27 () (_ BitVec 64) #x0000000000000001)
(model-add temp1649_28
           ()
           (_ BitVec 64)
           (select ARGNAME_input_NAMEEND_DIMSIZE #x0000000000000001))
(model-add temp1649_29 () (_ BitVec 64) #x0000000000000002)
(model-add temp1649_30 () (_ BitVec 64) #x0000000000000002)
(model-add temp1649_31
           ()
           (_ BitVec 64)
           (select ARGNAME_input_NAMEEND_DIMSIZE #x0000000000000002))
(model-add temp1649_32 () (_ BitVec 64) #x0000000000000003)
(model-add temp1649_33 () (_ BitVec 64) #x0000000000000003)
(model-add temp1649_34
           ()
           (_ BitVec 64)
           (select ARGNAME_input_NAMEEND_DIMSIZE #x0000000000000003))
(model-add temp1649_35 () (_ BitVec 64) #x0000000000000004)
(model-add temp1649_36 () (_ BitVec 64) #x0000000000000004)
(model-add temp1649_37
           ()
           (_ BitVec 64)
           (select ARGNAME_input_NAMEEND_DIMSIZE #x0000000000000004))
(model-add temp1649_38 () (_ BitVec 64) #x0000000000000005)
(model-add temp1649_39 () (_ BitVec 64) #x0000000000000005)
(model-add temp1649_40
           ()
           (_ BitVec 64)
           (select ARGNAME_input_NAMEEND_DIMSIZE #x0000000000000005))
(model-add temp1649_41 () (_ BitVec 64) #x0000000000000001)
(model-add temp1649_42 () (_ BitVec 64) #x0000000000000001)
(model-add temp1649_43
           ()
           (_ BitVec 64)
           (select ARGNAME_input_NAMEEND_DIMSIZE #x0000000000000001))
(model-add temp1649_44
           ()
           (_ BitVec 64)
           (select ARGNAME_w_ih_NAMEEND_DIMSIZE #x0000000000000001))
(model-add temp1649_45 () (_ BitVec 64) #x0000000000000001)
(model-add var404256 () (_ BitVec 64) #x0000000000000001)
(model-del k!0)
(model-add ARGNAME_w_ih_NAMEEND_DIM
           ()
           (_ BitVec 64)
           (ite (or k!0 (= #x0000000000000001 #x7fffffffffffffff))
                #x0000000000000001
                (bvadd #x0000000000000001 #x0000000000000001)))
(model-del k!1)
(model-add ARGNAME_input_NAMEEND_DIMSIZE
           ()
           (Array (_ BitVec 64) (_ BitVec 64))
           ((as const (Array (_ BitVec 64) (_ BitVec 64))) k!1))
(model-del k!2)
(model-add ARGNAME_w_ih_NAMEEND_DIMSIZE
           ()
           (Array (_ BitVec 64) (_ BitVec 64))
           ((as const (Array (_ BitVec 64) (_ BitVec 64))) k!2))
(model-del k!3)
(model-add k!0 () Bool (not k!3))
(model-del k!4)
(model-add k!1 () (_ BitVec 64) (ite k!4 k!2 (bvnot k!2)))



